3 5 4 9 -1 
3 2 5 2 -1 
-1 0 -1 7 -1 
-1 -1 -1 -1 -1 
-1 7 -1 2 -1 
0 4 2 9 -1 
4 -1 4 -1 -1 
-1 9 0 1 -1 
1 9 7 6 -1 
-1 4 -1 8 -1 
2 6 1 4 -1 
6 -1 1 7 -1 
5 2 0 9 -1 
-1 5 8 2 -1 
8 0 1 6 -1 
-1 -1 -1 8 -1 
9 1 1 1 -1 
0 -1 4 0 -1 
-1 8 9 4 -1 
2 4 1 6 -1 
